
     Program PWSCF v.7.5 starts on  8Jun2026 at 17:55:55 
        Git branch: HEAD
        Last git commit: 770a0b2d12928a67048e2f3da8d10d057e52179e
        Last git commit date: Tue Aug 19 09:57:12 2025 +0000
        Last git commit subject: Merge branch 'QE-7.5-RC' into 'master'

     This program is part of the open-source Quantum ESPRESSO suite
     for quantum simulation of materials; please cite
         "P. Giannozzi et al., J. Phys.:Condens. Matter 21 395502 (2009);
         "P. Giannozzi et al., J. Phys.:Condens. Matter 29 465901 (2017);
         "P. Giannozzi et al., J. Chem. Phys. 152 154105 (2020);
          URL http://www.quantum-espresso.org", 
     in publications or presentations arising from this work. More details at
     http://www.quantum-espresso.org/quote

     Serial version
     29412 MiB available memory on the printing compute node when the environment starts
 
     Reading input from artifacts/qe_ic_7day_prelim/generated_inputs/ic_al_interconnect_4atom_scf_v0.in

     Current dimensions of program PWSCF are:
     Max number of different atomic species (ntypx) = 10
     Max number of k-points (npk) =  40000
     Max angular momentum in pseudopotentials (lmaxx) =  4
     Found identity + (  0.0000 -0.5000 -0.5000) symmetry
     This is a supercell, fractional translations are disabled
     Message from routine setup:
     using ibrav=0 with symmetry is DISCOURAGED, use correct ibrav instead
 
 
     G-vector sticks info
     --------------------
     sticks:   dense  smooth     PW     G-vecs:    dense   smooth      PW
     Sum         373     373    121                 5449     5449    1021
 
     Using Slab Decomposition
 


     bravais-lattice index     =            0
     lattice parameter (alat)  =       7.6534  a.u.
     unit-cell volume          =     448.2927 (a.u.)^3
     number of atoms/cell      =            4
     number of atomic types    =            1
     number of electrons       =        12.00
     number of Kohn-Sham states=           10
     kinetic-energy cutoff     =      20.0000  Ry
     charge density cutoff     =      80.0000  Ry
     scf convergence threshold =      1.0E-06
     mixing beta               =       0.3000
     number of iterations used =            8  plain     mixing
     Exchange-correlation= SLA  PZ   NOGX NOGC
                           (   1   1   0   0   0   0   0)

     GPU acceleration is ACTIVE.  1 visible GPUs per MPI rank


     celldm(1)=   7.653391  celldm(2)=   0.000000  celldm(3)=   0.000000
     celldm(4)=   0.000000  celldm(5)=   0.000000  celldm(6)=   0.000000

     crystal axes: (cart. coord. in units of alat)
               a(1) = (   1.000000   0.000000   0.000000 )  
               a(2) = (   0.000000   1.000000   0.000000 )  
               a(3) = (   0.000000   0.000000   1.000000 )  

     reciprocal axes: (cart. coord. in units 2 pi/alat)
               b(1) = (  1.000000  0.000000  0.000000 )  
               b(2) = (  0.000000  1.000000  0.000000 )  
               b(3) = (  0.000000  0.000000  1.000000 )  


     PseudoPot. # 1 for Al read from file:
     /usr/share/espresso/pseudo/Al.pz-vbc.UPF
     MD5 check sum: 69dcd8cd7cc1bedf536afd524f174f6a
     Pseudo is Norm-conserving, Zval =  3.0
     Generated by new atomic code, or converted to UPF format
     Using radial grid of  171 points,  2 beta functions with: 
                l(1) =   0
                l(2) =   1

     atomic species   valence    mass     pseudopotential
     Al                3.00    26.98150     Al( 1.00)

     48 Sym. Ops., with inversion, found



   Cartesian axes

     site n.     atom                  positions (alat units)
         1        Al     tau(   1) = (   0.0000000   0.0000000   0.0000000  )
         2        Al     tau(   2) = (   0.0000000   0.5000000   0.5000000  )
         3        Al     tau(   3) = (   0.5000000   0.0000000   0.5000000  )
         4        Al     tau(   4) = (   0.5000000   0.5000000   0.0000000  )

     number of k points=     4  Marzari-Vanderbilt smearing, width (Ry)=  0.0200
                       cart. coord. in units 2pi/alat
        k(    1) = (   0.0000000   0.0000000   0.0000000), wk =   0.2500000
        k(    2) = (   0.0000000   0.0000000  -0.5000000), wk =   0.7500000
        k(    3) = (   0.0000000  -0.5000000  -0.5000000), wk =   0.7500000
        k(    4) = (  -0.5000000  -0.5000000  -0.5000000), wk =   0.2500000

     Dense  grid:     5449 G-vectors     FFT dimensions: (  24,  24,  24)

     Estimated max dynamical RAM per process >       4.39 MB

     Initial potential from superposition of free atoms

     starting charge      11.9918, renormalised to      12.0000
     Starting wfcs are   16 randomized atomic wfcs

     total cpu time spent up to now is        0.1 secs

     per-process dynamical memory:   272.2 Mb

     Self-consistent Calculation

     iteration #  1     ecut=    20.00 Ry     beta= 0.30
     Davidson diagonalization with overlap
     ethr =  1.00E-02,  avg # of iterations =  2.5

     Threshold (ethr) on eigenvalues was too large:
     Diagonalizing with lowered threshold

     Davidson diagonalization with overlap
     ethr =  2.49E-04,  avg # of iterations =  1.3

     total cpu time spent up to now is        0.2 secs

     total energy              =     -16.59652542 Ry
     estimated scf accuracy    <       0.03107146 Ry

     iteration #  2     ecut=    20.00 Ry     beta= 0.30
     Davidson diagonalization with overlap
     ethr =  2.59E-04,  avg # of iterations =  1.0

     total cpu time spent up to now is        0.3 secs

     total energy              =     -16.59448644 Ry
     estimated scf accuracy    <       0.01482249 Ry

     iteration #  3     ecut=    20.00 Ry     beta= 0.30
     Davidson diagonalization with overlap
     ethr =  1.24E-04,  avg # of iterations =  1.0

     total cpu time spent up to now is        0.3 secs

     total energy              =     -16.59459062 Ry
     estimated scf accuracy    <       0.00000953 Ry

     iteration #  4     ecut=    20.00 Ry     beta= 0.30
     Davidson diagonalization with overlap
     ethr =  7.95E-08,  avg # of iterations =  2.8

     total cpu time spent up to now is        0.4 secs

     total energy              =     -16.59459542 Ry
     estimated scf accuracy    <       0.00000171 Ry

     iteration #  5     ecut=    20.00 Ry     beta= 0.30
     Davidson diagonalization with overlap
     ethr =  1.43E-08,  avg # of iterations =  1.3

     total cpu time spent up to now is        0.4 secs

     End of self-consistent calculation

          k = 0.0000 0.0000 0.0000 (   691 PWs)   bands (ev):

    -3.3918   4.8377   4.8377   4.8377   6.0371   6.0371   6.0371  13.1415
    13.1416  13.1416

          k = 0.0000 0.0000-0.5000 (   682 PWs)   bands (ev):

    -1.1345  -1.1345   6.8577   6.8577   6.8578   6.8578   7.8596   7.8597
     8.6657   8.6657

          k = 0.0000-0.5000-0.5000 (   680 PWs)   bands (ev):

     1.0733   1.0733   1.0733   1.0734   8.8900   8.8900   8.8900   8.8900
    10.3522  10.3522

          k =-0.5000-0.5000-0.5000 (   672 PWs)   bands (ev):

     3.2030   3.2030   3.2030   3.2031   3.2759   3.2759   3.2759   3.2759
    18.6403  18.6403

     the Fermi energy is     7.8975 ev

!    total energy              =     -16.59459548 Ry
     estimated scf accuracy    <          6.6E-09 Ry
     smearing contrib. (-TS)   =      -0.00491849 Ry
     internal energy E=F+TS    =     -16.58967699 Ry

     The total energy is F=E-TS. E is the sum of the following terms:
     one-electron contribution =      11.35753689 Ry
     hartree contribution      =       0.03759104 Ry
     xc contribution           =      -6.41854247 Ry
     ewald contribution        =     -21.56626245 Ry

     convergence has been achieved in   5 iterations

     Writing all to output data dir artifacts/qe_ic_7day_prelim/qe_tmp/ic_al_interconnect_4atom_scf_v0/ic_al_interconnect_4atom_scf_v0.save/ :
     XML data file, charge density, pseudopotentials, collected wavefunctions
 
     init_run     :      0.06s CPU      0.13s WALL (       1 calls)
     electrons    :      0.28s CPU      0.29s WALL (       1 calls)

     Called by init_run:
     wfcinit      :      0.04s CPU      0.07s WALL (       1 calls)
     potinit      :      0.00s CPU      0.00s WALL (       1 calls)
     hinit0       :      0.01s CPU      0.01s WALL (       1 calls)

     Called by electrons:
     c_bands      :      0.23s CPU      0.24s WALL (       6 calls)
     sum_band     :      0.03s CPU      0.03s WALL (       6 calls)
     v_of_rho     :      0.00s CPU      0.00s WALL (       6 calls)
     mix_rho      :      0.01s CPU      0.02s WALL (       6 calls)

     Called by c_bands:
     init_us_2    :      0.03s CPU      0.03s WALL (      52 calls)
     cegterg      :      0.20s CPU      0.21s WALL (      24 calls)

     Called by *egterg:
     cdiaghg      :      0.07s CPU      0.09s WALL (      59 calls)
                                        0.08s GPU  (      59 calls)
     h_psi        :      0.09s CPU      0.11s WALL (      67 calls)
     g_psi        :      0.00s CPU      0.00s WALL (      39 calls)

     Called by h_psi:
     h_psi:calbec :      0.01s CPU      0.03s WALL (      67 calls)
     vloc_psi     :      0.03s CPU      0.04s WALL (      67 calls)
                                        0.04s GPU  (      67 calls)
     add_vuspsi   :      0.04s CPU      0.04s WALL (      67 calls)

     General routines
     calbec       :      0.01s CPU      0.03s WALL (      67 calls)
     fft          :      0.00s CPU      0.00s WALL (      18 calls)
                                        0.00s GPU  (      18 calls)
     ffts         :      0.00s CPU      0.00s WALL (       6 calls)
                                        0.00s GPU  (       6 calls)
     fftw         :      0.01s CPU      0.02s WALL (     158 calls)
                                        0.01s GPU  (     158 calls)
 
 
     PWSCF        :      0.35s CPU      0.44s WALL

 
   This run was terminated on:  17:55:56   8Jun2026            

=------------------------------------------------------------------------------=
   JOB DONE.
=------------------------------------------------------------------------------=
