
     Program PWSCF v.7.5 starts on  8Jun2026 at 17:55:52 
        Git branch: HEAD
        Last git commit: 770a0b2d12928a67048e2f3da8d10d057e52179e
        Last git commit date: Tue Aug 19 09:57:12 2025 +0000
        Last git commit subject: Merge branch 'QE-7.5-RC' into 'master'

     This program is part of the open-source Quantum ESPRESSO suite
     for quantum simulation of materials; please cite
         "P. Giannozzi et al., J. Phys.:Condens. Matter 21 395502 (2009);
         "P. Giannozzi et al., J. Phys.:Condens. Matter 29 465901 (2017);
         "P. Giannozzi et al., J. Chem. Phys. 152 154105 (2020);
          URL http://www.quantum-espresso.org", 
     in publications or presentations arising from this work. More details at
     http://www.quantum-espresso.org/quote

     Serial version
     29414 MiB available memory on the printing compute node when the environment starts
 
     Reading input from artifacts/qe_ic_7day_prelim/generated_inputs/ic_sio2_dielectric_6atom_scf_v0.in

     Current dimensions of program PWSCF are:
     Max number of different atomic species (ntypx) = 10
     Max number of k-points (npk) =  40000
     Max angular momentum in pseudopotentials (lmaxx) =  4
     file O.pz-rrkjus.UPF: wavefunction(s)  2S renormalized
     Message from routine setup:
     using ibrav=0 with symmetry is DISCOURAGED, use correct ibrav instead
 
 
     G-vector sticks info
     --------------------
     sticks:   dense  smooth     PW     G-vecs:    dense   smooth      PW
     Sum         465     465    113                 7497     7497     925
 
     Using Slab Decomposition
 


     bravais-lattice index     =            0
     lattice parameter (alat)  =      10.2045  a.u.
     unit-cell volume          =    1062.6197 (a.u.)^3
     number of atoms/cell      =            6
     number of atomic types    =            2
     number of electrons       =        32.00
     number of Kohn-Sham states=           16
     kinetic-energy cutoff     =      14.0000  Ry
     charge density cutoff     =      56.0000  Ry
     scf convergence threshold =      1.0E-06
     mixing beta               =       0.4500
     number of iterations used =            8  plain     mixing
     Exchange-correlation= SLA  PZ   NOGX NOGC
                           (   1   1   0   0   0   0   0)

     GPU acceleration is ACTIVE.  1 visible GPUs per MPI rank


     celldm(1)=  10.204521  celldm(2)=   0.000000  celldm(3)=   0.000000
     celldm(4)=   0.000000  celldm(5)=   0.000000  celldm(6)=   0.000000

     crystal axes: (cart. coord. in units of alat)
               a(1) = (   1.000000   0.000000   0.000000 )  
               a(2) = (   0.000000   1.000000   0.000000 )  
               a(3) = (   0.000000   0.000000   1.000000 )  

     reciprocal axes: (cart. coord. in units 2 pi/alat)
               b(1) = (  1.000000  0.000000  0.000000 )  
               b(2) = (  0.000000  1.000000  0.000000 )  
               b(3) = (  0.000000  0.000000  1.000000 )  


     PseudoPot. # 1 for Si read from file:
     /usr/share/espresso/pseudo/Si.pz-vbc.UPF
     MD5 check sum: a974d1b8727157e37210f3f86afb6210
     Pseudo is Norm-conserving, Zval =  4.0
     Generated by new atomic code, or converted to UPF format
     Using radial grid of  431 points,  2 beta functions with: 
                l(1) =   0
                l(2) =   1

     PseudoPot. # 2 for O  read from file:
     /usr/share/espresso/pseudo/O.pz-rrkjus.UPF
     MD5 check sum: c5abe3fd05217cb51bb0c605dcba6842
     Pseudo is Ultrasoft, Zval =  6.0
     Generated by new atomic code, or converted to UPF format
     Using radial grid of 1269 points,  4 beta functions with: 
                l(1) =   0
                l(2) =   0
                l(3) =   1
                l(4) =   1
     Q(r) pseudized with 0 coefficients 


     atomic species   valence    mass     pseudopotential
     Si                4.00    28.08550     Si( 1.00)
     O                 6.00    15.99900     O ( 1.00)

      2 Sym. Ops. (no inversion) found



   Cartesian axes

     site n.     atom                  positions (alat units)
         1        Si     tau(   1) = (   0.2500000   0.2500000   0.2500000  )
         2        Si     tau(   2) = (   0.7500000   0.7500000   0.7500000  )
         3        O      tau(   3) = (   0.2500000   0.5000000   0.5000000  )
         4        O      tau(   4) = (   0.5000000   0.2500000   0.5000000  )
         5        O      tau(   5) = (   0.7500000   0.5000000   0.7500000  )
         6        O      tau(   6) = (   0.5000000   0.7500000   0.7500000  )

     number of k points=     1
                       cart. coord. in units 2pi/alat
        k(    1) = (   0.0000000   0.0000000   0.0000000), wk =   2.0000000

     Dense  grid:     7497 G-vectors     FFT dimensions: (  25,  25,  25)

     Estimated max dynamical RAM per process >      10.94 MB

     Initial potential from superposition of free atoms

     starting charge      31.9990, renormalised to      32.0000

     negative rho (up, down):  1.053E-01 0.000E+00
     Starting wfcs are   24 randomized atomic wfcs

     total cpu time spent up to now is        0.2 secs

     per-process dynamical memory:   297.9 Mb

     Self-consistent Calculation

     iteration #  1     ecut=    14.00 Ry     beta= 0.45
     Davidson diagonalization with overlap
     ethr =  1.00E-02,  avg # of iterations =  2.0

     negative rho (up, down):  1.011E-01 0.000E+00

     total cpu time spent up to now is        0.3 secs

     total energy              =    -139.60376328 Ry
     estimated scf accuracy    <       1.52404680 Ry

     iteration #  2     ecut=    14.00 Ry     beta= 0.45
     Davidson diagonalization with overlap
     ethr =  4.76E-03,  avg # of iterations =  7.0

     negative rho (up, down):  9.284E-02 0.000E+00

     total cpu time spent up to now is        0.3 secs

     total energy              =    -139.46915669 Ry
     estimated scf accuracy    <       2.18794970 Ry

     iteration #  3     ecut=    14.00 Ry     beta= 0.45
     Davidson diagonalization with overlap
     ethr =  4.76E-03,  avg # of iterations =  7.0

     negative rho (up, down):  8.402E-02 0.000E+00

     total cpu time spent up to now is        0.4 secs

     total energy              =    -139.82603207 Ry
     estimated scf accuracy    <       2.40360391 Ry

     iteration #  4     ecut=    14.00 Ry     beta= 0.45
     Davidson diagonalization with overlap
     ethr =  4.76E-03,  avg # of iterations =  1.0

     negative rho (up, down):  7.276E-02 0.000E+00

     total cpu time spent up to now is        0.4 secs

     total energy              =    -139.39147271 Ry
     estimated scf accuracy    <       1.44007074 Ry

     iteration #  5     ecut=    14.00 Ry     beta= 0.45
     Davidson diagonalization with overlap
     ethr =  4.50E-03,  avg # of iterations = 10.0

     negative rho (up, down):  7.620E-02 0.000E+00

     total cpu time spent up to now is        0.5 secs

     total energy              =    -139.98703680 Ry
     estimated scf accuracy    <       2.52137657 Ry

     iteration #  6     ecut=    14.00 Ry     beta= 0.45
     Davidson diagonalization with overlap
     ethr =  4.50E-03,  avg # of iterations =  1.0

     negative rho (up, down):  7.598E-02 0.000E+00

     total cpu time spent up to now is        0.5 secs

     total energy              =    -139.70564763 Ry
     estimated scf accuracy    <       1.81741138 Ry

     iteration #  7     ecut=    14.00 Ry     beta= 0.45
     Davidson diagonalization with overlap
     ethr =  4.50E-03,  avg # of iterations =  6.0

     negative rho (up, down):  7.594E-02 0.000E+00

     total cpu time spent up to now is        0.5 secs

     total energy              =    -139.91239169 Ry
     estimated scf accuracy    <       0.29291322 Ry

     iteration #  8     ecut=    14.00 Ry     beta= 0.45
     Davidson diagonalization with overlap
     ethr =  9.15E-04,  avg # of iterations =  2.0

     negative rho (up, down):  7.650E-02 0.000E+00

     total cpu time spent up to now is        0.6 secs

     total energy              =    -139.90150635 Ry
     estimated scf accuracy    <       0.19944900 Ry

     iteration #  9     ecut=    14.00 Ry     beta= 0.45
     Davidson diagonalization with overlap
     ethr =  6.23E-04,  avg # of iterations =  2.0

     negative rho (up, down):  7.712E-02 0.000E+00

     total cpu time spent up to now is        0.6 secs

     total energy              =    -139.89341002 Ry
     estimated scf accuracy    <       0.13716988 Ry

     iteration # 10     ecut=    14.00 Ry     beta= 0.45
     Davidson diagonalization with overlap
     ethr =  4.29E-04,  avg # of iterations =  7.0

     negative rho (up, down):  7.839E-02 0.000E+00

     total cpu time spent up to now is        0.7 secs

     total energy              =    -139.96664148 Ry
     estimated scf accuracy    <       0.52905040 Ry

     iteration # 11     ecut=    14.00 Ry     beta= 0.45
     Davidson diagonalization with overlap
     ethr =  4.29E-04,  avg # of iterations =  6.0

     negative rho (up, down):  7.868E-02 0.000E+00

     total cpu time spent up to now is        0.8 secs

     total energy              =    -139.95684919 Ry
     estimated scf accuracy    <       1.52702978 Ry

     iteration # 12     ecut=    14.00 Ry     beta= 0.45
     Davidson diagonalization with overlap
     ethr =  4.29E-04,  avg # of iterations =  1.0

     negative rho (up, down):  7.946E-02 0.000E+00

     total cpu time spent up to now is        0.8 secs

     total energy              =    -139.81179193 Ry
     estimated scf accuracy    <       1.46013258 Ry

     iteration # 13     ecut=    14.00 Ry     beta= 0.45
     Davidson diagonalization with overlap
     ethr =  4.29E-04,  avg # of iterations =  8.0

     negative rho (up, down):  8.107E-02 0.000E+00

     total cpu time spent up to now is        0.9 secs

     total energy              =    -139.87676003 Ry
     estimated scf accuracy    <       0.01039017 Ry

     iteration # 14     ecut=    14.00 Ry     beta= 0.45
     Davidson diagonalization with overlap
     ethr =  3.25E-05,  avg # of iterations =  9.0

     negative rho (up, down):  8.126E-02 0.000E+00

     total cpu time spent up to now is        1.0 secs

     total energy              =    -140.00946282 Ry
     estimated scf accuracy    <       0.47732844 Ry

     iteration # 15     ecut=    14.00 Ry     beta= 0.45
     Davidson diagonalization with overlap
     ethr =  3.25E-05,  avg # of iterations =  2.0

     negative rho (up, down):  8.176E-02 0.000E+00

     total cpu time spent up to now is        1.0 secs

     total energy              =    -140.00586222 Ry
     estimated scf accuracy    <       0.49399248 Ry

     iteration # 16     ecut=    14.00 Ry     beta= 0.45
     Davidson diagonalization with overlap
     ethr =  3.25E-05,  avg # of iterations =  1.0

     negative rho (up, down):  8.207E-02 0.000E+00

     total cpu time spent up to now is        1.0 secs

     total energy              =    -140.00633783 Ry
     estimated scf accuracy    <       0.48614120 Ry

     iteration # 17     ecut=    14.00 Ry     beta= 0.45
     Davidson diagonalization with overlap
     ethr =  3.25E-05,  avg # of iterations =  7.0

     negative rho (up, down):  8.136E-02 0.000E+00

     total cpu time spent up to now is        1.1 secs

     total energy              =    -140.00112304 Ry
     estimated scf accuracy    <       0.51695372 Ry

     iteration # 18     ecut=    14.00 Ry     beta= 0.45
     Davidson diagonalization with overlap
     ethr =  3.25E-05,  avg # of iterations =  1.0

     negative rho (up, down):  8.093E-02 0.000E+00

     total cpu time spent up to now is        1.1 secs

     total energy              =    -139.99752910 Ry
     estimated scf accuracy    <       0.49151955 Ry

     iteration # 19     ecut=    14.00 Ry     beta= 0.45
     Davidson diagonalization with overlap
     ethr =  3.25E-05,  avg # of iterations =  1.0

     negative rho (up, down):  7.881E-02 0.000E+00

     total cpu time spent up to now is        1.2 secs

     total energy              =    -139.98541709 Ry
     estimated scf accuracy    <       0.47971667 Ry

     iteration # 20     ecut=    14.00 Ry     beta= 0.45
     Davidson diagonalization with overlap
     ethr =  3.25E-05,  avg # of iterations =  1.0

     negative rho (up, down):  8.091E-02 0.000E+00

     total cpu time spent up to now is        1.2 secs

     total energy              =    -140.02809880 Ry
     estimated scf accuracy    <       0.44686339 Ry

     iteration # 21     ecut=    14.00 Ry     beta= 0.45
     Davidson diagonalization with overlap
     ethr =  3.25E-05,  avg # of iterations =  7.0

     negative rho (up, down):  7.728E-02 0.000E+00

     total cpu time spent up to now is        1.3 secs

     total energy              =    -139.94456885 Ry
     estimated scf accuracy    <       0.62012406 Ry

     iteration # 22     ecut=    14.00 Ry     beta= 0.45
     Davidson diagonalization with overlap
     ethr =  3.25E-05,  avg # of iterations =  6.0

     negative rho (up, down):  7.126E-02 0.000E+00

     total cpu time spent up to now is        1.4 secs

     total energy              =    -139.83879441 Ry
     estimated scf accuracy    <       0.36707277 Ry

     iteration # 23     ecut=    14.00 Ry     beta= 0.45
     Davidson diagonalization with overlap
     ethr =  3.25E-05,  avg # of iterations =  9.0

     negative rho (up, down):  7.582E-02 0.000E+00

     total cpu time spent up to now is        1.4 secs

     total energy              =    -139.50506086 Ry
     estimated scf accuracy    <       2.82490131 Ry

     iteration # 24     ecut=    14.00 Ry     beta= 0.45
     Davidson diagonalization with overlap
     ethr =  3.25E-05,  avg # of iterations = 10.0

     negative rho (up, down):  7.577E-02 0.000E+00

     total cpu time spent up to now is        1.5 secs

     total energy              =    -139.95960953 Ry
     estimated scf accuracy    <       0.54085525 Ry

     iteration # 25     ecut=    14.00 Ry     beta= 0.45
     Davidson diagonalization with overlap
     ethr =  3.25E-05,  avg # of iterations =  4.0

     negative rho (up, down):  7.944E-02 0.000E+00

     total cpu time spent up to now is        1.6 secs

     total energy              =    -139.80201354 Ry
     estimated scf accuracy    <       0.34891108 Ry

     iteration # 26     ecut=    14.00 Ry     beta= 0.45
     Davidson diagonalization with overlap
     ethr =  3.25E-05,  avg # of iterations = 12.0

     negative rho (up, down):  8.022E-02 0.000E+00

     total cpu time spent up to now is        1.7 secs

     total energy              =    -140.00795389 Ry
     estimated scf accuracy    <       0.51670291 Ry

     iteration # 27     ecut=    14.00 Ry     beta= 0.45
     Davidson diagonalization with overlap
     ethr =  3.25E-05,  avg # of iterations =  1.0

     negative rho (up, down):  7.775E-02 0.000E+00

     total cpu time spent up to now is        1.7 secs

     total energy              =    -139.98531827 Ry
     estimated scf accuracy    <       0.52372810 Ry

     iteration # 28     ecut=    14.00 Ry     beta= 0.45
     Davidson diagonalization with overlap
     ethr =  3.25E-05,  avg # of iterations =  1.0

     negative rho (up, down):  8.331E-02 0.000E+00

     total cpu time spent up to now is        1.7 secs

     total energy              =    -140.05446567 Ry
     estimated scf accuracy    <       0.46894770 Ry

     iteration # 29     ecut=    14.00 Ry     beta= 0.45
     Davidson diagonalization with overlap
     ethr =  3.25E-05,  avg # of iterations =  2.0

     negative rho (up, down):  8.334E-02 0.000E+00

     total cpu time spent up to now is        1.8 secs

     total energy              =    -140.06114739 Ry
     estimated scf accuracy    <       0.64417394 Ry

     iteration # 30     ecut=    14.00 Ry     beta= 0.45
     Davidson diagonalization with overlap
     ethr =  3.25E-05,  avg # of iterations =  1.0

     negative rho (up, down):  8.587E-02 0.000E+00

     total cpu time spent up to now is        1.8 secs

     total energy              =    -140.08290178 Ry
     estimated scf accuracy    <       0.66314639 Ry

     End of self-consistent calculation

     convergence NOT achieved after  30 iterations: stopping

     Writing config to output data dir artifacts/qe_ic_7day_prelim/qe_tmp/ic_sio2_dielectric_6atom_scf_v0/ic_sio2_dielectric_6atom_scf_v0.save/ :
     XML data file, charge density distributed wavefunctions
 
     init_run     :      0.10s CPU      0.17s WALL (       1 calls)
     electrons    :      1.57s CPU      1.60s WALL (       1 calls)

     Called by init_run:
     wfcinit      :      0.03s CPU      0.05s WALL (       1 calls)
     potinit      :      0.01s CPU      0.01s WALL (       1 calls)
     hinit0       :      0.03s CPU      0.04s WALL (       1 calls)

     Called by electrons:
     c_bands      :      0.85s CPU      0.86s WALL (      30 calls)
     sum_band     :      0.28s CPU      0.29s WALL (      30 calls)
     v_of_rho     :      0.03s CPU      0.03s WALL (      31 calls)
     newd         :      0.14s CPU      0.16s WALL (      31 calls)
     mix_rho      :      0.27s CPU      0.27s WALL (      30 calls)

     Called by c_bands:
     init_us_2    :      0.05s CPU      0.05s WALL (      61 calls)
     cegterg      :      0.79s CPU      0.80s WALL (      30 calls)

     Called by *egterg:
     cdiaghg      :      0.25s CPU      0.28s WALL (     165 calls)
                                        0.28s GPU  (     165 calls)
     h_psi        :      0.21s CPU      0.23s WALL (     166 calls)
     s_psi        :      0.10s CPU      0.10s WALL (     166 calls)
     g_psi        :      0.01s CPU      0.01s WALL (     135 calls)

     Called by h_psi:
     h_psi:calbec :      0.01s CPU      0.03s WALL (     166 calls)
     vloc_psi     :      0.11s CPU      0.12s WALL (     166 calls)
                                        0.12s GPU  (     166 calls)
     add_vuspsi   :      0.08s CPU      0.08s WALL (     166 calls)

     General routines
     calbec       :      0.01s CPU      0.03s WALL (     196 calls)
     fft          :      0.00s CPU      0.01s WALL (     124 calls)
                                        0.01s GPU  (     124 calls)
     ffts         :      0.00s CPU      0.00s WALL (      30 calls)
                                        0.00s GPU  (      30 calls)
     fftw         :      0.02s CPU      0.05s WALL (     364 calls)
                                        0.04s GPU  (     364 calls)
     davcio       :      0.00s CPU      0.00s WALL (      19 calls)
 
 
     PWSCF        :      1.71s CPU      1.82s WALL

 
   This run was terminated on:  17:55:54   8Jun2026            

=------------------------------------------------------------------------------=
   JOB DONE.
=------------------------------------------------------------------------------=
