
     Program PWSCF v.7.5 starts on  8Jun2026 at 17:55:48 
        Git branch: HEAD
        Last git commit: 770a0b2d12928a67048e2f3da8d10d057e52179e
        Last git commit date: Tue Aug 19 09:57:12 2025 +0000
        Last git commit subject: Merge branch 'QE-7.5-RC' into 'master'

     This program is part of the open-source Quantum ESPRESSO suite
     for quantum simulation of materials; please cite
         "P. Giannozzi et al., J. Phys.:Condens. Matter 21 395502 (2009);
         "P. Giannozzi et al., J. Phys.:Condens. Matter 29 465901 (2017);
         "P. Giannozzi et al., J. Chem. Phys. 152 154105 (2020);
          URL http://www.quantum-espresso.org", 
     in publications or presentations arising from this work. More details at
     http://www.quantum-espresso.org/quote

     Serial version
     29425 MiB available memory on the printing compute node when the environment starts
 
     Reading input from artifacts/qe_ic_7day_prelim/generated_inputs/ic_si_bulk_2atom_scf_v0.in

     Current dimensions of program PWSCF are:
     Max number of different atomic species (ntypx) = 10
     Max number of k-points (npk) =  40000
     Max angular momentum in pseudopotentials (lmaxx) =  4
 
 
     G-vector sticks info
     --------------------
     sticks:   dense  smooth     PW     G-vecs:    dense   smooth      PW
     Sum         163     163     61                 1459     1459     331
 
     Using Slab Decomposition
 


     bravais-lattice index     =            2
     lattice parameter (alat)  =      10.2600  a.u.
     unit-cell volume          =     270.0114 (a.u.)^3
     number of atoms/cell      =            2
     number of atomic types    =            1
     number of electrons       =         8.00
     number of Kohn-Sham states=            4
     kinetic-energy cutoff     =      12.0000  Ry
     charge density cutoff     =      48.0000  Ry
     scf convergence threshold =      1.0E-06
     mixing beta               =       0.5000
     number of iterations used =            8  plain     mixing
     Exchange-correlation= SLA  PZ   NOGX NOGC
                           (   1   1   0   0   0   0   0)

     GPU acceleration is ACTIVE.  1 visible GPUs per MPI rank


     celldm(1)=  10.260000  celldm(2)=   0.000000  celldm(3)=   0.000000
     celldm(4)=   0.000000  celldm(5)=   0.000000  celldm(6)=   0.000000

     crystal axes: (cart. coord. in units of alat)
               a(1) = (  -0.500000   0.000000   0.500000 )  
               a(2) = (   0.000000   0.500000   0.500000 )  
               a(3) = (  -0.500000   0.500000   0.000000 )  

     reciprocal axes: (cart. coord. in units 2 pi/alat)
               b(1) = ( -1.000000 -1.000000  1.000000 )  
               b(2) = (  1.000000  1.000000  1.000000 )  
               b(3) = ( -1.000000  1.000000 -1.000000 )  


     PseudoPot. # 1 for Si read from file:
     /usr/share/espresso/pseudo/Si.pz-vbc.UPF
     MD5 check sum: a974d1b8727157e37210f3f86afb6210
     Pseudo is Norm-conserving, Zval =  4.0
     Generated by new atomic code, or converted to UPF format
     Using radial grid of  431 points,  2 beta functions with: 
                l(1) =   0
                l(2) =   1

     atomic species   valence    mass     pseudopotential
     Si                4.00    28.08550     Si( 1.00)

     48 Sym. Ops., with inversion, found (24 have fractional translation)



   Cartesian axes

     site n.     atom                  positions (alat units)
         1        Si     tau(   1) = (   0.0000000   0.0000000   0.0000000  )
         2        Si     tau(   2) = (  -0.2500000   0.2500000   0.2500000  )

     number of k points=     3
                       cart. coord. in units 2pi/alat
        k(    1) = (   0.0000000   0.0000000   0.0000000), wk =   0.2500000
        k(    2) = (   0.5000000  -0.5000000   0.5000000), wk =   1.0000000
        k(    3) = (   0.0000000  -1.0000000   0.0000000), wk =   0.7500000

     Dense  grid:     1459 G-vectors     FFT dimensions: (  16,  16,  16)

     Estimated max dynamical RAM per process >       1.06 MB

     Initial potential from superposition of free atoms

     starting charge       7.9990, renormalised to       8.0000
     Starting wfcs are    8 randomized atomic wfcs

     total cpu time spent up to now is        0.1 secs

     per-process dynamical memory:   243.1 Mb

     Self-consistent Calculation

     iteration #  1     ecut=    12.00 Ry     beta= 0.50
     Davidson diagonalization with overlap
     ethr =  1.00E-02,  avg # of iterations =  2.0

     total cpu time spent up to now is        0.2 secs

     total energy              =     -15.61694339 Ry
     estimated scf accuracy    <       0.10003293 Ry

     iteration #  2     ecut=    12.00 Ry     beta= 0.50
     Davidson diagonalization with overlap
     ethr =  1.25E-03,  avg # of iterations =  1.0

     total cpu time spent up to now is        0.2 secs

     total energy              =     -15.61400160 Ry
     estimated scf accuracy    <       0.01911514 Ry

     iteration #  3     ecut=    12.00 Ry     beta= 0.50
     Davidson diagonalization with overlap
     ethr =  2.39E-04,  avg # of iterations =  1.7

     total cpu time spent up to now is        0.2 secs

     total energy              =     -15.61545892 Ry
     estimated scf accuracy    <       0.00033227 Ry

     iteration #  4     ecut=    12.00 Ry     beta= 0.50
     Davidson diagonalization with overlap
     ethr =  4.15E-06,  avg # of iterations =  2.0

     total cpu time spent up to now is        0.2 secs

     total energy              =     -15.61553666 Ry
     estimated scf accuracy    <       0.00007149 Ry

     iteration #  5     ecut=    12.00 Ry     beta= 0.50
     Davidson diagonalization with overlap
     ethr =  8.94E-07,  avg # of iterations =  2.0

     total cpu time spent up to now is        0.3 secs

     End of self-consistent calculation

          k = 0.0000 0.0000 0.0000 (   169 PWs)   bands (ev):

    -5.5427   6.4062   6.4062   6.4062

          k = 0.5000-0.5000 0.5000 (   180 PWs)   bands (ev):

    -3.1483  -0.6908   5.1398   5.1398

          k = 0.0000-1.0000 0.0000 (   190 PWs)   bands (ev):

    -1.3927  -1.3927   3.4177   3.4177

     highest occupied level (ev):     6.4062

!    total energy              =     -15.61554557 Ry
     estimated scf accuracy    <       0.00000013 Ry

     The total energy is the sum of the following terms:
     one-electron contribution =       4.79924279 Ry
     hartree contribution      =       1.23682309 Ry
     xc contribution           =      -4.85068186 Ry
     ewald contribution        =     -16.80092958 Ry

     convergence has been achieved in   5 iterations

     Writing all to output data dir artifacts/qe_ic_7day_prelim/qe_tmp/ic_si_bulk_2atom_scf_v0/ic_si_bulk_2atom_scf_v0.save/ :
     XML data file, charge density, pseudopotentials, collected wavefunctions
 
     init_run     :      0.08s CPU      0.12s WALL (       1 calls)
     electrons    :      0.13s CPU      0.14s WALL (       1 calls)

     Called by init_run:
     wfcinit      :      0.04s CPU      0.06s WALL (       1 calls)
     potinit      :      0.00s CPU      0.00s WALL (       1 calls)
     hinit0       :      0.01s CPU      0.02s WALL (       1 calls)

     Called by electrons:
     c_bands      :      0.09s CPU      0.11s WALL (       5 calls)
     sum_band     :      0.01s CPU      0.01s WALL (       5 calls)
     v_of_rho     :      0.00s CPU      0.00s WALL (       6 calls)
     mix_rho      :      0.02s CPU      0.02s WALL (       5 calls)

     Called by c_bands:
     init_us_2    :      0.01s CPU      0.01s WALL (      33 calls)
     cegterg      :      0.08s CPU      0.09s WALL (      15 calls)

     Called by *egterg:
     cdiaghg      :      0.03s CPU      0.04s WALL (      41 calls)
                                        0.04s GPU  (      41 calls)
     h_psi        :      0.05s CPU      0.06s WALL (      44 calls)
     g_psi        :      0.00s CPU      0.00s WALL (      26 calls)

     Called by h_psi:
     h_psi:calbec :      0.02s CPU      0.02s WALL (      44 calls)
     vloc_psi     :      0.02s CPU      0.02s WALL (      44 calls)
                                        0.02s GPU  (      44 calls)
     add_vuspsi   :      0.02s CPU      0.02s WALL (      44 calls)

     General routines
     calbec       :      0.02s CPU      0.02s WALL (      44 calls)
     fft          :      0.00s CPU      0.00s WALL (      17 calls)
                                        0.00s GPU  (      17 calls)
     ffts         :      0.00s CPU      0.00s WALL (       5 calls)
                                        0.00s GPU  (       5 calls)
     fftw         :      0.00s CPU      0.01s WALL (     103 calls)
                                        0.01s GPU  (     103 calls)
 
 
     PWSCF        :      0.21s CPU      0.27s WALL

 
   This run was terminated on:  17:55:48   8Jun2026            

=------------------------------------------------------------------------------=
   JOB DONE.
=------------------------------------------------------------------------------=
